num_offers = 25;
num_halls = 10;
start=[51,55,47,10,13,23,43,65,28,15,10,14,36,31,32,62,10,66,38,8,23,57,24,32,32];
end=[78,62,50,82,17,43,85,73,36,67,36,32,45,32,67,77,93,72,81,89,99,93,88,87,97];
price=[1719,541,305,1935,191,210,2055,795,721,4655,2173,829,669,43,2406,1126,1462,483,2474,1694,1528,830,1061,3162,4399];
requirement=[361,215,624,950,622,230,428,843,547,655,934,427,473,407,456,298,518,821,445,322,712,790,292,710,401];
capacity=[948,857,677,614,300,370,856,645,646,811];
